4 
5  19 32 46 55 
6  10 17 25 32 37 42 47 52 57 
7  02 07 12 17 22 27 32 37 42 47 52 57 
8  02 07 12 17 22 27 32 37 44 52 
9  00 08 15 23 30 37 45 52 
10  00 07 15 22 30 37 45 52 
11  00 07 15 22 30 37 45 52 
12  00 07 15 22 30 37 45 52 
13  00 08 16 23 31 38 46 53 
14  00 08 16 23 31 37 45 52 57 
15  02 07 12 17 22 27 32 37 42 47 52 57 
16  02 07 12 17 22 27 32 37 42 47 52 57 
17  02 07 12 17 22 27 32 37 42 47 52 57 
18  02 07 12 17 22 27 32 41 47 54 
19  00 07 15 22 30 38 45 52 
20  00 07 15 22 29 37 45 52 59 
21  07 15 22 30 37 45 52 
22  01 16 33 47 
23  07 22 41 
0 
